
(set-option :produce-models true)
(set-option :inline-size-limit 10000)

(declare-const var0 String)

(push 1)
(assert (str.in.re var0 (re.* (re.range "\x01" "\xff"))))
(assert (str.in.re var0 (re.++ (re.*? re.allchar) (re.++ ((_ re.capture 1) (re.union (re.++ (str.to.re "&") (re.++ (str.to.re "#") (re.++ (str.to.re "3") (re.++ (str.to.re "9") (re.++ (str.to.re ";") (re.++ (re.* (re.union (re.++ (str.to.re "&") (re.++ (str.to.re "#") (re.++ (str.to.re "3") (re.++ (str.to.re "9") (str.to.re ";"))))) (re.inter (re.diff (re.range "\x01" "\xff") (str.to.re "&")) (re.inter (re.diff (re.range "\x01" "\xff") (str.to.re "#")) (re.inter (re.diff (re.range "\x01" "\xff") (str.to.re "3")) (re.inter (re.diff (re.range "\x01" "\xff") (str.to.re "9")) (re.diff (re.range "\x01" "\xff") (str.to.re ";")))))))) (re.++ (str.to.re "&") (re.++ (str.to.re "#") (re.++ (str.to.re "3") (re.++ (str.to.re "9") (str.to.re ";"))))))))))) (re.++ (str.to.re "N") (re.++ (str.to.re "U") (re.++ (str.to.re "L") (str.to.re "L")))))) re.all))))	; match!==null
(assert (not (str.in.re ((_ str.extract 1) var0 (re.++ (re.*? re.allchar) (re.++ ((_ re.capture 1) (re.union (re.++ (str.to.re "&") (re.++ (str.to.re "#") (re.++ (str.to.re "3") (re.++ (str.to.re "9") (re.++ (str.to.re ";") (re.++ (re.* (re.union (re.++ (str.to.re "&") (re.++ (str.to.re "#") (re.++ (str.to.re "3") (re.++ (str.to.re "9") (str.to.re ";"))))) (re.inter (re.diff (re.range "\x01" "\xff") (str.to.re "&")) (re.inter (re.diff (re.range "\x01" "\xff") (str.to.re "#")) (re.inter (re.diff (re.range "\x01" "\xff") (str.to.re "3")) (re.inter (re.diff (re.range "\x01" "\xff") (str.to.re "9")) (re.diff (re.range "\x01" "\xff") (str.to.re ";")))))))) (re.++ (str.to.re "&") (re.++ (str.to.re "#") (re.++ (str.to.re "3") (re.++ (str.to.re "9") (str.to.re ";"))))))))))) (re.++ (str.to.re "N") (re.++ (str.to.re "U") (re.++ (str.to.re "L") (str.to.re "L")))))) re.all))) (str.to.re "\x00"))))
;match[1]!==null
(assert (str.in.re ((_ str.extract 1) var0 (re.++ (re.*? re.allchar) (re.++ ((_ re.capture 1) (re.union (re.++ (str.to.re "&") (re.++ (str.to.re "#") (re.++ (str.to.re "3") (re.++ (str.to.re "9") (re.++ (str.to.re ";") (re.++ (re.* (re.union (re.++ (str.to.re "&") (re.++ (str.to.re "#") (re.++ (str.to.re "3") (re.++ (str.to.re "9") (str.to.re ";"))))) (re.inter (re.diff (re.range "\x01" "\xff") (str.to.re "&")) (re.inter (re.diff (re.range "\x01" "\xff") (str.to.re "#")) (re.inter (re.diff (re.range "\x01" "\xff") (str.to.re "3")) (re.inter (re.diff (re.range "\x01" "\xff") (str.to.re "9")) (re.diff (re.range "\x01" "\xff") (str.to.re ";")))))))) (re.++ (str.to.re "&") (re.++ (str.to.re "#") (re.++ (str.to.re "3") (re.++ (str.to.re "9") (str.to.re ";"))))))))))) (re.++ (str.to.re "N") (re.++ (str.to.re "U") (re.++ (str.to.re "L") (str.to.re "L")))))) re.all))) (re.++ re.all(re.+ (re.range "a" "z")) re.all) ))
;/[a-z]+/.test(match[1]) == true
(check-sat)
(get-model)
(pop 1)
(push 1)
(assert (str.in.re var0 (re.* (re.range "\x01" "\xff"))))
(assert (str.in.re var0 (re.++ (re.*? re.allchar) (re.++ ((_ re.capture 1) (re.union (re.++ (str.to.re "&") (re.++ (str.to.re "#") (re.++ (str.to.re "3") (re.++ (str.to.re "9") (re.++ (str.to.re ";") (re.++ (re.* (re.union (re.++ (str.to.re "&") (re.++ (str.to.re "#") (re.++ (str.to.re "3") (re.++ (str.to.re "9") (str.to.re ";"))))) (re.inter (re.diff (re.range "\x01" "\xff") (str.to.re "&")) (re.inter (re.diff (re.range "\x01" "\xff") (str.to.re "#")) (re.inter (re.diff (re.range "\x01" "\xff") (str.to.re "3")) (re.inter (re.diff (re.range "\x01" "\xff") (str.to.re "9")) (re.diff (re.range "\x01" "\xff") (str.to.re ";")))))))) (re.++ (str.to.re "&") (re.++ (str.to.re "#") (re.++ (str.to.re "3") (re.++ (str.to.re "9") (str.to.re ";"))))))))))) (re.++ (str.to.re "N") (re.++ (str.to.re "U") (re.++ (str.to.re "L") (str.to.re "L")))))) re.all))))	; match!==null
(assert (not (str.in.re ((_ str.extract 1) var0 (re.++ (re.*? re.allchar) (re.++ ((_ re.capture 1) (re.union (re.++ (str.to.re "&") (re.++ (str.to.re "#") (re.++ (str.to.re "3") (re.++ (str.to.re "9") (re.++ (str.to.re ";") (re.++ (re.* (re.union (re.++ (str.to.re "&") (re.++ (str.to.re "#") (re.++ (str.to.re "3") (re.++ (str.to.re "9") (str.to.re ";"))))) (re.inter (re.diff (re.range "\x01" "\xff") (str.to.re "&")) (re.inter (re.diff (re.range "\x01" "\xff") (str.to.re "#")) (re.inter (re.diff (re.range "\x01" "\xff") (str.to.re "3")) (re.inter (re.diff (re.range "\x01" "\xff") (str.to.re "9")) (re.diff (re.range "\x01" "\xff") (str.to.re ";")))))))) (re.++ (str.to.re "&") (re.++ (str.to.re "#") (re.++ (str.to.re "3") (re.++ (str.to.re "9") (str.to.re ";"))))))))))) (re.++ (str.to.re "N") (re.++ (str.to.re "U") (re.++ (str.to.re "L") (str.to.re "L")))))) re.all))) (str.to.re "\x00"))))	
;match[1]!==null
(assert (not (str.in.re ((_ str.extract 1) var0 (re.++ (re.*? re.allchar) (re.++ ((_ re.capture 1) (re.union (re.++ (str.to.re "&") (re.++ (str.to.re "#") (re.++ (str.to.re "3") (re.++ (str.to.re "9") (re.++ (str.to.re ";") (re.++ (re.* (re.union (re.++ (str.to.re "&") (re.++ (str.to.re "#") (re.++ (str.to.re "3") (re.++ (str.to.re "9") (str.to.re ";"))))) (re.inter (re.diff (re.range "\x01" "\xff") (str.to.re "&")) (re.inter (re.diff (re.range "\x01" "\xff") (str.to.re "#")) (re.inter (re.diff (re.range "\x01" "\xff") (str.to.re "3")) (re.inter (re.diff (re.range "\x01" "\xff") (str.to.re "9")) (re.diff (re.range "\x01" "\xff") (str.to.re ";")))))))) (re.++ (str.to.re "&") (re.++ (str.to.re "#") (re.++ (str.to.re "3") (re.++ (str.to.re "9") (str.to.re ";"))))))))))) (re.++ (str.to.re "N") (re.++ (str.to.re "U") (re.++ (str.to.re "L") (str.to.re "L")))))) re.all))) (re.++ re.all(re.+ (re.range "a" "z")) re.all) )))
;/[a-z]+/.test(match[1]) == false	
(check-sat)
(get-model)
(pop 1)
(push 1)
(assert (str.in.re var0 (re.* (re.range "\x01" "\xff"))))
(assert (str.in.re var0 (re.++ (re.*? re.allchar) (re.++ ((_ re.capture 1) (re.union (re.++ (str.to.re "&") (re.++ (str.to.re "#") (re.++ (str.to.re "3") (re.++ (str.to.re "9") (re.++ (str.to.re ";") (re.++ (re.* (re.union (re.++ (str.to.re "&") (re.++ (str.to.re "#") (re.++ (str.to.re "3") (re.++ (str.to.re "9") (str.to.re ";"))))) (re.inter (re.diff (re.range "\x01" "\xff") (str.to.re "&")) (re.inter (re.diff (re.range "\x01" "\xff") (str.to.re "#")) (re.inter (re.diff (re.range "\x01" "\xff") (str.to.re "3")) (re.inter (re.diff (re.range "\x01" "\xff") (str.to.re "9")) (re.diff (re.range "\x01" "\xff") (str.to.re ";")))))))) (re.++ (str.to.re "&") (re.++ (str.to.re "#") (re.++ (str.to.re "3") (re.++ (str.to.re "9") (str.to.re ";"))))))))))) (re.++ (str.to.re "N") (re.++ (str.to.re "U") (re.++ (str.to.re "L") (str.to.re "L")))))) re.all))))	; match!==null
(assert (str.in.re ((_ str.extract 1) var0 (re.++ (re.*? re.allchar) (re.++ ((_ re.capture 1) (re.union (re.++ (str.to.re "&") (re.++ (str.to.re "#") (re.++ (str.to.re "3") (re.++ (str.to.re "9") (re.++ (str.to.re ";") (re.++ (re.* (re.union (re.++ (str.to.re "&") (re.++ (str.to.re "#") (re.++ (str.to.re "3") (re.++ (str.to.re "9") (str.to.re ";"))))) (re.inter (re.diff (re.range "\x01" "\xff") (str.to.re "&")) (re.inter (re.diff (re.range "\x01" "\xff") (str.to.re "#")) (re.inter (re.diff (re.range "\x01" "\xff") (str.to.re "3")) (re.inter (re.diff (re.range "\x01" "\xff") (str.to.re "9")) (re.diff (re.range "\x01" "\xff") (str.to.re ";")))))))) (re.++ (str.to.re "&") (re.++ (str.to.re "#") (re.++ (str.to.re "3") (re.++ (str.to.re "9") (str.to.re ";"))))))))))) (re.++ (str.to.re "N") (re.++ (str.to.re "U") (re.++ (str.to.re "L") (str.to.re "L")))))) re.all))) (str.to.re "\x00")))
;match[1]==null
(check-sat)
(get-model)
(pop 1)
(push 1)
(assert (str.in.re var0 (re.* (re.range "\x01" "\xff"))))
(assert (not (str.in.re var0 (re.++ (re.*? re.allchar) (re.++ ((_ re.capture 1) (re.union (re.++ (str.to.re "&") (re.++ (str.to.re "#") (re.++ (str.to.re "3") (re.++ (str.to.re "9") (re.++ (str.to.re ";") (re.++ (re.* (re.union (re.++ (str.to.re "&") (re.++ (str.to.re "#") (re.++ (str.to.re "3") (re.++ (str.to.re "9") (str.to.re ";"))))) (re.inter (re.diff (re.range "\x01" "\xff") (str.to.re "&")) (re.inter (re.diff (re.range "\x01" "\xff") (str.to.re "#")) (re.inter (re.diff (re.range "\x01" "\xff") (str.to.re "3")) (re.inter (re.diff (re.range "\x01" "\xff") (str.to.re "9")) (re.diff (re.range "\x01" "\xff") (str.to.re ";")))))))) (re.++ (str.to.re "&") (re.++ (str.to.re "#") (re.++ (str.to.re "3") (re.++ (str.to.re "9") (str.to.re ";"))))))))))) (re.++ (str.to.re "N") (re.++ (str.to.re "U") (re.++ (str.to.re "L") (str.to.re "L")))))) re.all)))))	; match == null
(check-sat)
(get-model)
(pop 1)
(exit)
